2023/05/23
Julia is now 1.9.0
previous version was 1.7.2
2023/11/29
gurobi is now 11.0.0
previous version was 10.0.2
solving instance knapsack 10 2 sqrt
feasible solution found by trivial heuristic after 0.0 seconds, objective value 0.000000e+00
presolving:
(round 1, fast)       10 del vars, 20 del conss, 0 add conss, 10 chg bounds, 0 chg sides, 0 chg coeffs, 0 upgd conss, 0 impls, 0 clqs
(round 2, fast)       10 del vars, 20 del conss, 0 add conss, 20 chg bounds, 0 chg sides, 0 chg coeffs, 0 upgd conss, 0 impls, 0 clqs
   (0.0s) symmetry computation started: requiring (bin +, int +, cont +), (fixed: bin -, int -, cont -)
   (0.0s) no symmetry present
presolving (3 rounds: 3 fast, 1 medium, 1 exhaustive):
 10 deleted vars, 20 deleted constraints, 0 added constraints, 20 tightened bounds, 0 added holes, 0 changed sides, 0 changed coefficients
 0 implications, 0 cliques
presolved problem has 20 variables (0 bin, 0 int, 0 impl, 20 cont) and 11 constraints
      1 constraints of type <linear>
     10 constraints of type <nonlinear>
Presolving Time: 0.00

 time | node  | left  |LP iter|LP it/n|mem/heur|mdpt |vars |cons |rows |cuts |sepa|confs|strbr|  dualbound   | primalbound  |  gap   | compl. 
t 0.0s|     1 |     0 |     0 |     - | trivial|   0 |  20 |  11 |   0 |   0 |  0 |   0 |   0 |-3.082700e+02 | 0.000000e+00 |    Inf | unknown
  0.0s|     1 |     0 |    42 |     - |  1058k |   0 |  40 |  11 |  41 |   0 |  0 |   0 |   0 |-2.907643e+02 | 0.000000e+00 |    Inf | unknown
L 0.0s|     1 |     0 |    42 |     - |undercov|   0 |  40 |  11 |  41 |   0 |  0 |   0 |   0 |-2.907643e+02 |-2.879256e+02 |   0.99%| unknown
L 0.0s|     1 |     0 |    42 |     - |undercov|   0 |  40 |  11 |  41 |   0 |  0 |   0 |   0 |-2.907643e+02 |-2.892963e+02 |   0.51%| unknown
  0.0s|     1 |     0 |    52 |     - |  1110k |   0 |  40 |  11 |  51 |  10 |  1 |   0 |   0 |-2.902237e+02 |-2.892963e+02 |   0.32%| unknown
  0.1s|     1 |     0 |    52 |     - |  1110k |   0 |  40 |  11 |  51 |  10 |  1 |   0 |   0 |-2.902237e+02 |-2.892963e+02 |   0.32%| unknown
  0.1s|     1 |     0 |    62 |     - |  1110k |   0 |  40 |  11 |  61 |  20 |  2 |   0 |   0 |-2.896961e+02 |-2.892963e+02 |   0.14%| unknown
  0.1s|     1 |     0 |    67 |     - |  1110k |   0 |  40 |  11 |  65 |  24 |  3 |   0 |   0 |-2.893530e+02 |-2.892963e+02 |   0.02%| unknown
  0.1s|     1 |     0 |    70 |     - |  1110k |   0 |  40 |  11 |  69 |  28 |  4 |   0 |   0 |-2.893165e+02 |-2.892963e+02 |   0.01%| unknown
  0.1s|     1 |     0 |    76 |     - |  1110k |   0 |  40 |  11 |  73 |  32 |  5 |   0 |   0 |-2.893019e+02 |-2.892963e+02 |   0.00%| unknown
  0.1s|     1 |     0 |    82 |     - |  1110k |   0 |  40 |  11 |  77 |  36 |  6 |   0 |   0 |-2.892974e+02 |-2.892963e+02 |   0.00%| unknown
  0.1s|     1 |     0 |    87 |     - |  1110k |   0 |  40 |  11 |  81 |  40 |  7 |   0 |   0 |-2.892966e+02 |-2.892963e+02 |   0.00%| unknown

SCIP Status        : solving was interrupted [gap limit reached]
Solving Time (sec) : 0.05
Solving Nodes      : 1
Primal Bound       : -2.89296329081160e+02 (8 solutions)
Dual Bound         : -2.89296572732757e+02
Gap                : 0.00 %
Min nlobj[1,1] + nlobj[1,2] + nlobj[1,3] + nlobj[1,4] + nlobj[1,5] + nlobj[1,6] + nlobj[1,7] + nlobj[1,8] + nlobj[1,9] + nlobj[1,10]
Subject to
 x[1,1] - 100 onoff[1,1] ≤ 0
 x[1,2] - 100 onoff[1,2] ≤ 0
 x[1,3] - 100 onoff[1,3] ≤ 0
 x[1,4] - 100 onoff[1,4] ≤ 0
 x[1,5] - 100 onoff[1,5] ≤ 0
 x[1,6] - 100 onoff[1,6] ≤ 0
 x[1,7] - 100 onoff[1,7] ≤ 0
 x[1,8] - 100 onoff[1,8] ≤ 0
 x[1,9] - 100 onoff[1,9] ≤ 0
 x[1,10] - 100 onoff[1,10] ≤ 0
 4 x[1,1] + 60 x[1,2] + 77 x[1,3] + 38 x[1,4] + 50 x[1,5] + 21 x[1,6] + 44 x[1,7] + 27 x[1,8] + 16 x[1,9] + 52 x[1,10] ≤ 19450
 x[1,1] ≤ 100
 x[1,2] ≤ 100
 x[1,3] ≤ 100
 x[1,4] ≤ 100
 x[1,5] ≤ 100
 x[1,6] ≤ 100
 x[1,7] ≤ 100
 x[1,8] ≤ 100
 x[1,9] ≤ 100
 x[1,10] ≤ 100
 x[1,1] ≥ 0
 x[1,2] ≥ 0
 x[1,3] ≥ 0
 x[1,4] ≥ 0
 x[1,5] ≥ 0
 x[1,6] ≥ 0
 x[1,7] ≥ 0
 x[1,8] ≥ 0
 x[1,9] ≥ 0
 x[1,10] ≥ 0
 nlobj[1,1] ≥ -10000000000
 nlobj[1,2] ≥ -10000000000
 nlobj[1,3] ≥ -10000000000
 nlobj[1,4] ≥ -10000000000
 nlobj[1,5] ≥ -10000000000
 nlobj[1,6] ≥ -10000000000
 nlobj[1,7] ≥ -10000000000
 nlobj[1,8] ≥ -10000000000
 nlobj[1,9] ≥ -10000000000
 nlobj[1,10] ≥ -10000000000
 x[1,1] ≤ 100
 x[1,2] ≤ 100
 x[1,3] ≤ 100
 x[1,4] ≤ 100
 x[1,5] ≤ 100
 x[1,6] ≤ 100
 x[1,7] ≤ 100
 x[1,8] ≤ 100
 x[1,9] ≤ 100
 x[1,10] ≤ 100
 nlobj[1,1] ≤ 10000000000
 nlobj[1,2] ≤ 10000000000
 nlobj[1,3] ≤ 10000000000
 nlobj[1,4] ≤ 10000000000
 nlobj[1,5] ≤ 10000000000
 nlobj[1,6] ≤ 10000000000
 nlobj[1,7] ≤ 10000000000
 nlobj[1,8] ≤ 10000000000
 nlobj[1,9] ≤ 10000000000
 nlobj[1,10] ≤ 10000000000
 onoff[1,1] binary
 onoff[1,2] binary
 onoff[1,3] binary
 onoff[1,4] binary
 onoff[1,5] binary
 onoff[1,6] binary
 onoff[1,7] binary
 onoff[1,8] binary
 onoff[1,9] binary
 onoff[1,10] binary
 (subexpression[1] - nlobj[1,1]) - 0.0 ≤ 0
 (subexpression[2] - nlobj[1,2]) - 0.0 ≤ 0
 (subexpression[3] - nlobj[1,3]) - 0.0 ≤ 0
 (subexpression[4] - nlobj[1,4]) - 0.0 ≤ 0
 (subexpression[5] - nlobj[1,5]) - 0.0 ≤ 0
 (subexpression[6] - nlobj[1,6]) - 0.0 ≤ 0
 (subexpression[7] - nlobj[1,7]) - 0.0 ≤ 0
 (subexpression[8] - nlobj[1,8]) - 0.0 ≤ 0
 (subexpression[9] - nlobj[1,9]) - 0.0 ≤ 0
 (subexpression[10] - nlobj[1,10]) - 0.0 ≤ 0
With NL expressions
 subexpression[1]: -1.0 * 4.840051916386329 * (0.01 * x[1,1]) ^ 0.5
 subexpression[2]: -1.0 * 7.5374326254504105 * (0.01 * x[1,2]) ^ 0.5
 subexpression[3]: -1.0 * 4.384673938320918 * (0.01 * x[1,3]) ^ 0.5
 subexpression[4]: -1.0 * 54.892826059277006 * (0.01 * x[1,4]) ^ 0.5
 subexpression[5]: -1.0 * 8.446938395930479 * (0.01 * x[1,5]) ^ 0.5
 subexpression[6]: -1.0 * 96.25137142036897 * (0.01 * x[1,6]) ^ 0.5
 subexpression[7]: -1.0 * 29.095803565128143 * (0.01 * x[1,7]) ^ 0.5
 subexpression[8]: -1.0 * 21.17371966369101 * (0.01 * x[1,8]) ^ 0.5
 subexpression[9]: -1.0 * 4.253940766985485 * (0.01 * x[1,9]) ^ 0.5
 subexpression[10]: -1.0 * 77.39325548433317 * (0.01 * x[1,10]) ^ 0.5

primal_bound = -289.2963290811597, dual_bound = -289.2965727327572, gap = 8.422208228796611e-5, time = 3.31
